c ---- [ banner ] ------------------------------------------------------------
c
c Kissat SAT Solver
c 
c Copyright (c) 2021-2024 Armin Biere University of Freiburg
c Copyright (c) 2019-2021 Armin Biere Johannes Kepler University Linz
c 
c Version 4.0.1 43f02cf3e992cb44653b35e5cb26f93281552ae0
c gcc (Ubuntu 13.2.0-23ubuntu4) 13.2.0 -W -Wall -O3 -DNDEBUG
c Thu Sep 12 12:27:46 CEST 2024 Linux abryzen9 6.8.0-41-generic x86_64
c
c ---- [ parsing ] -----------------------------------------------------------
c
c opened and reading DIMACS file:
c
c   /data/artifact/AMulet2.0_artifact/exp4/cnf_resyn3_64/64_64_U2_4to2_JCA_Multgen_resyn3.cnf
c
c parsed 'p cnf 21678 85104' header
c closing input after reading 1664080 bytes (2 MB)
c finished parsing after 0.01 seconds
c
c ---- [ options ] -----------------------------------------------------------
c
c --stable=0                       (different from default '1')
c
c ---- [ solving ] -----------------------------------------------------------
c
c  seconds switched rate     size/glue tier1  binary         remaining
c         MB reductions conflicts size  tier2    irredundant
c          level restarts redundant glue  trail         variables
c
c *  0.01  9 0 0 0  0 0   0   0 0.0 0 0 0 0 0% 5210 79892 21675 100%
c (  0.02  9 0 0 0  0 0   0   0 0.0 0 0 0 0 0% 5210 79892 21675 100%
c .  0.02  9 0 0 0  0 0   0   0 0.0 0 0 0 0 0% 5206 79892 21675 100%
c c  0.06 17 0 0 0  0 0   0   0 0.0 0 0 0 0 0% 5460 79581 21507 99%
c d  0.06 17 0 0 0  0 0   0   0 0.0 0 0 0 0 0% 5072 79581 21507 99%
c =  0.10 17 0 0 0  0 0   0   0 0.0 0 0 0 0 0% 5011 79581 21506 99%
c d  0.10 17 0 0 0  0 0   0   0 0.0 0 0 0 0 0% 5009 79581 21506 99%
c f  0.14 16 0 0 0  0 0   0   0 0.0 0 0 0 0 0% 5036 79396 21537 99%
c e  0.26 17 0 0 0  0 0   0   0 0.0 0 0 0 0 0% 3792 80201 16488 76%
c )  0.26 17 0 0 0  0 0   0   0 0.0 0 0 0 0 0% 3792 80201 16488 76%
c {  0.27 17 0 0 0  0 0   0   0 0.0 0 0 2 6 0% 3792 80201 16488 76%
c i  0.28 17 71 0 0 83 19 237 157 1.6 5 3 2 6 4% 3836 80200 16487 76%
c i  0.28 17 65 0 0 128 20 341 253 1.7 5 3 2 6 4% 3837 80200 16486 76%
c i  0.29 17 62 0 0 184 20 501 398 1.7 6 3 2 6 4% 3842 80199 16485 76%
c i  0.29 17 63 0 0 185 20 505 401 1.7 6 3 2 6 4% 3842 80199 16484 76%
c i  0.30 17 86 0 0 208 20 633 502 1.7 6 4 3 7 10% 3851 80198 16483 76%
c -  0.36 18 84 0 1 326 23 1000 774 1.7 6 4 3 8 12% 3865 80163 16483 76%
c -  0.49 18 144 0 2 585 33 2000 1559 1.8 8 4 3 9 16% 3876 80163 16483 76%
c c  0.60 18 140 0 2 717 34 2503 2018 2.0 9 5 3 9 16% 3981 80019 16436 76%
c d  0.61 18 140 0 2 717 34 2503 2010 2.0 9 5 3 9 16% 3890 80018 16436 76%
c
c  seconds   switched   rate       size/glue tier1   binary         remaining
c         MB  reductions conflicts      size  tier2     irredundant
c           level restarts    redundant   glue   trail         variables
c
c b  0.61 18 140 0 2 717 34 2503 2010 2.0 9 5 3 9 16% 3890 80018 16435 76%
c u  0.62 18 140 0 2 717 34 2503 1556 2.0 9 5 3 9 16% 3874 80018 16435 76%
c v  0.64 18 140 0 2 717 34 2503 1398 2.0 9 5 3 9 16% 3874 80018 16435 76%
c w  0.64 18 140 0 2 717 34 2503 1398 2.0 9 5 3 9 16% 3874 80018 16435 76%
c x  0.66 18 140 0 2 717 34 2503 1397 2.0 9 5 3 9 16% 3939 79650 16435 76%
c d  0.71 18 140 0 2 717 34 2503 1397 2.0 9 5 3 9 16% 3937 79645 16432 76%
c t  0.72 18 140 0 2 717 34 2503 1397 2.0 9 5 3 9 16% 3861 79645 16432 76%
c f  0.73 18 140 0 2 717 34 2503 1397 2.0 9 5 3 9 16% 4036 79381 16520 76%
c c  0.79 18 140 0 2 717 34 2503 1397 2.0 9 5 3 9 16% 4033 79381 16519 76%
c d  0.80 18 140 0 2 717 34 2503 1397 2.0 9 5 3 9 16% 4031 79381 16519 76%
c u  0.81 18 140 0 2 717 34 2503 1342 2.0 9 5 3 9 16% 4033 79381 16519 76%
c v  0.83 18 140 0 2 717 34 2503 1262 2.0 9 5 3 9 16% 4033 79381 16519 76%
c w  0.84 18 140 0 2 717 34 2503 1261 2.0 9 5 3 9 16% 4033 79381 16519 76%
c x  0.85 18 140 0 2 717 34 2503 1259 2.0 9 5 3 9 16% 4088 79195 16519 76%
c t  0.87 18 140 0 2 717 34 2503 1259 2.0 9 5 3 9 16% 4034 79195 16519 76%
c f  0.89 18 140 0 2 717 34 2503 1259 2.0 9 5 3 9 16% 4130 78927 16568 76%
c -  1.03 18 133 0 3 883 32 3415 1884 1.9 9 5 4 9 17% 4133 78927 16568 76%
c -  1.30 18 130 0 4 1208 31 5149 3075 2.0 10 5 3 9 19% 4142 78927 16568 76%
c -  1.48 18 126 0 5 1385 27 7149 4284 1.9 10 5 3 9 19% 4177 78925 16568 76%
c d  1.60 18 126 0 5 1485 27 7711 4819 1.9 10 5 3 9 19% 4176 78925 16566 76%
c
c  seconds   switched    rate       size/glue tier1    binary         remaining
c         MB  reductions  conflicts       size  tier2     irredundant
c           level  restarts    redundant    glue   trail         variables
c
c u  1.64 18 126 0 5 1485 27 7711 3992 1.9 10 5 3 9 19% 4182 78925 16566 76%
c v  1.67 18 126 0 5 1485 27 7711 3688 1.9 10 5 3 9 19% 4182 78925 16566 76%
c w  1.68 18 126 0 5 1485 27 7711 3684 1.9 10 5 3 9 19% 4182 78925 16566 76%
c x  1.70 18 126 0 5 1485 27 7711 3684 1.9 10 5 3 9 19% 4207 78853 16563 76%
c =  1.78 18 126 0 5 1485 27 7711 3684 1.9 10 5 3 9 19% 4232 78841 16551 76%
c d  1.79 18 126 0 5 1485 27 7711 3683 1.9 10 5 3 9 19% 4208 78838 16551 76%
c t  1.80 18 126 0 5 1485 27 7711 3683 1.9 10 5 3 9 19% 4177 78838 16551 76%
c f  1.83 18 126 0 5 1485 27 7711 3683 1.9 10 5 3 9 19% 4214 78763 16577 76%
c c  1.89 20 126 0 5 1485 27 7711 3680 1.9 10 5 3 9 19% 4230 78723 16569 76%
c d  1.90 20 126 0 5 1485 27 7711 3680 1.9 10 5 3 9 19% 4214 78723 16569 76%
c u  1.92 20 126 0 5 1485 27 7711 3617 1.9 10 5 3 9 19% 4216 78723 16569 76%
c v  1.95 20 126 0 5 1485 27 7711 3408 1.9 10 5 3 9 19% 4216 78723 16569 76%
c w  1.96 20 126 0 5 1485 27 7711 3398 1.9 10 5 3 9 19% 4216 78723 16569 76%
c x  1.98 20 126 0 5 1485 27 7711 3398 1.9 10 5 3 9 19% 4221 78705 16569 76%
c =  2.08 20 126 0 5 1485 27 7711 3398 1.9 10 5 3 9 19% 4299 78705 16530 76%
c d  2.09 20 126 0 5 1485 27 7711 3396 1.9 10 5 3 9 19% 4216 78705 16530 76%
c t  2.11 20 126 0 5 1485 27 7711 3396 1.9 10 5 3 9 19% 4176 78705 16530 76%
c f  2.14 20 126 0 5 1485 27 7711 3396 1.9 10 5 3 9 19% 4179 78699 16532 76%
c i  2.14 20 126 0 5 1485 27 7711 3396 1.9 10 5 3 9 19% 4179 78699 16532 76%
c -  2.38 20 121 0 6 1692 25 9386 4295 1.9 10 5 3 9 19% 4183 78699 16532 76%
c
c  seconds   switched    rate        size/glue tier1    binary         remaining
c         MB  reductions   conflicts       size  tier2     irredundant
c           level  restarts     redundant    glue   trail         variables
c
c o  2.54 20 123 0 6 1799 26 10115 4978 2.0 11 5 3 9 20% 4188 78699 16532 76%
c -  2.72 20 125 0 7 1935 25 11837 5753 2.0 11 5 3 8 20% 4197 78699 16532 76%
c s  2.82 20 124 0 7 2006 24 12513 6375 2.0 11 5 3 8 20% 4206 78389 16532 76%
c e  2.91 20 124 0 7 2006 24 12513 6375 2.0 11 5 3 8 20% 3124 79106 14954 69%
c 2  2.91 20 124 0 7 2006 24 12513 6375 2.0 11 5 3 8 20% 3123 79106 14954 69%
c s  2.92 20 124 0 7 2006 24 12513 6375 2.0 11 5 3 8 20% 3128 78739 14954 69%
c e  2.94 20 124 0 7 2006 24 12513 6375 2.0 11 5 3 8 20% 3062 78774 14916 69%
c ^  2.94 20 124 0 7 2006 24 12513 6375 2.0 11 5 3 8 20% 3062 78774 14916 69%
c -  3.28 24 124 0 8 2179 24 14485 6154 1.9 10 5 3 9 21% 3065 78774 14916 69%
c u  3.51 24 124 0 8 2317 23 15797 6013 1.9 10 5 3 9 21% 3078 78774 14916 69%
c v  3.55 24 124 0 8 2317 23 15797 5441 1.9 10 5 3 9 21% 3078 78774 14916 69%
c w  3.57 24 124 0 8 2317 23 15797 5431 1.9 10 5 3 9 21% 3078 78774 14916 69%
c t  3.71 24 124 0 8 2317 23 15797 5431 1.9 10 5 3 9 21% 3074 78774 14916 69%
c f  3.75 24 124 0 8 2317 23 15797 5431 1.9 10 5 3 9 21% 3101 78684 14933 69%
c u  3.79 24 124 0 8 2317 23 15797 5283 1.9 10 5 3 9 21% 3102 78684 14933 69%
c v  3.83 24 124 0 8 2317 23 15797 5126 1.9 10 5 3 9 21% 3102 78684 14933 69%
c w  3.84 24 124 0 8 2317 23 15797 5109 1.9 10 5 3 9 21% 3102 78684 14933 69%
c x  3.87 24 124 0 8 2317 23 15797 5107 1.9 10 5 3 9 21% 3129 78649 14933 69%
c t  3.89 24 124 0 8 2317 23 15797 5107 1.9 10 5 3 9 21% 3103 78649 14933 69%
c f  3.92 24 124 0 8 2317 23 15797 5107 1.9 10 5 3 9 21% 3107 78639 14935 69%
c
c  seconds   switched    rate        size/glue tier1    binary         remaining
c         MB  reductions   conflicts       size  tier2     irredundant
c           level  restarts     redundant    glue   trail         variables
c
c -  4.15 24 125 0 9 2487 23 17313 5639 1.9 10 5 3 9 22% 3116 78639 14935 69%
c o  4.57 24 123 0 9 2785 22 20223 8364 1.9 10 6 3 9 22% 3126 78638 14935 69%
c -  4.60 24 123 0 10 2802 22 20315 7384 1.9 10 6 3 9 22% 3127 78638 14935 69%
c -  5.04 24 125 0 11 3050 22 23477 9035 1.9 10 6 3 8 23% 3151 78638 14935 69%
c s  5.18 24 122 0 11 3136 21 25032 10409 1.9 10 5 3 8 22% 3168 78576 14935 69%
c e  5.28 24 122 0 11 3136 21 25032 10409 1.9 10 5 3 8 22% 2738 79228 14410 66%
c s  5.28 24 122 0 11 3136 21 25032 10409 1.9 10 5 3 8 22% 2761 79017 14410 66%
c e  5.30 24 122 0 11 3136 21 25032 10409 1.9 10 5 3 8 22% 2756 79022 14405 66%
c ^  5.30 24 122 0 11 3136 21 25032 10409 1.9 10 5 3 8 22% 2756 79022 14405 66%
c -  5.46 24 120 0 12 3241 20 26795 9616 1.9 10 5 3 8 22% 2770 79022 14405 66%
c c  5.55 24 120 0 12 3260 20 26938 9753 1.9 10 5 3 8 22% 2835 78882 14369 66%
c d  5.56 24 120 0 12 3260 20 26938 9672 1.9 10 5 3 8 22% 2763 78882 14369 66%
c u  5.62 24 120 0 12 3260 20 26938 7608 1.9 10 5 3 8 22% 2745 78882 14369 66%
c v  5.66 24 120 0 12 3260 20 26938 7046 1.9 10 5 3 8 22% 2745 78882 14369 66%
c w  5.67 24 120 0 12 3260 20 26938 7039 1.9 10 5 3 8 22% 2745 78882 14369 66%
c =  5.82 24 120 0 12 3260 20 26938 7039 1.9 10 5 3 8 22% 2763 78882 14360 66%
c d  5.82 24 120 0 12 3260 20 26938 7038 1.9 10 5 3 8 22% 2741 78882 14360 66%
c t  5.84 24 120 0 12 3260 20 26938 7038 1.9 10 5 3 8 22% 2712 78882 14360 66%
c f  5.87 24 120 0 12 3260 20 26938 7038 1.9 10 5 3 8 22% 2764 78717 14394 66%
c u  5.93 24 120 0 12 3260 20 26938 6732 1.9 10 5 3 8 22% 2768 78717 14394 66%
c
c  seconds   switched     rate        size/glue tier1    binary         remaining
c         MB   reductions   conflicts       size  tier2     irredundant
c           level   restarts     redundant    glue   trail         variables
c
c v  5.96 24 120 0 12 3260 20 26938 6561 1.9 10 5 3 8 22% 2768 78717 14394 66%
c w  5.97 24 120 0 12 3260 20 26938 6556 1.9 10 5 3 8 22% 2768 78717 14394 66%
c =  6.14 24 120 0 12 3260 20 26938 6556 1.9 10 5 3 8 22% 2824 78705 14366 66%
c d  6.15 24 120 0 12 3260 20 26938 6556 1.9 10 5 3 8 22% 2763 78705 14366 66%
c t  6.16 24 120 0 12 3260 20 26938 6556 1.9 10 5 3 8 22% 2759 78705 14366 66%
c -  6.70 24 121 0 13 3538 20 30259 8457 1.9 10 5 3 8 23% 2782 78704 14366 66%
c -  7.12 24 120 0 14 3842 19 33864 9822 1.9 10 6 2 8 23% 2806 78700 14366 66%
c -  7.61 24 119 0 15 4233 19 37605 11196 1.9 10 6 2 8 23% 2827 78700 14366 66%
c o  7.98 24 119 0 15 4492 19 40251 13676 1.8 10 6 2 8 24% 2832 78700 14366 66%
c c  8.22 24 119 0 15 4609 19 41286 14624 1.9 10 6 2 8 24% 2861 78642 14353 66%
c d  8.23 24 119 0 15 4609 19 41286 14605 1.9 10 6 2 8 24% 2835 78642 14353 66%
c u  8.28 24 119 0 15 4609 19 41286 12780 1.9 10 6 2 8 24% 2843 78642 14353 66%
c v  8.34 24 119 0 15 4609 19 41286 12124 1.9 10 6 2 8 24% 2843 78642 14353 66%
c w  8.37 24 119 0 15 4609 19 41286 12110 1.9 10 6 2 8 24% 2843 78642 14353 66%
c x  8.41 24 119 0 15 4609 19 41286 12107 1.9 10 6 2 8 24% 2851 78624 14353 66%
c =  8.63 24 119 0 15 4609 19 41286 12107 1.9 10 6 2 8 24% 2979 78619 14289 66%
c d  8.64 24 119 0 15 4609 19 41286 12071 1.9 10 6 2 8 24% 2842 78619 14289 66%
c t  8.65 24 119 0 15 4609 19 41286 12071 1.9 10 6 2 8 24% 2818 78619 14289 66%
c f  8.67 24 119 0 15 4609 19 41286 12071 1.9 10 6 2 8 24% 2822 78598 14294 66%
c u  8.72 24 119 0 15 4609 19 41286 11834 1.9 10 6 2 8 24% 2825 78598 14294 66%
c
c  seconds   switched     rate         size/glue tier1    binary         remaining
c         MB   reductions   conflicts        size  tier2     irredundant
c           level   restarts      redundant    glue   trail         variables
c
c v  8.83 24 119 0 15 4609 19 41286 10160 1.9 10 6 2 8 24% 2825 78598 14294 66%
c w  8.86 24 119 0 15 4609 19 41286 10134 1.9 10 6 2 8 24% 2825 78598 14294 66%
c =  9.09 24 119 0 15 4609 19 41286 10134 1.9 10 6 2 8 24% 2943 78598 14235 66%
c d  9.10 24 119 0 15 4609 19 41286 10122 1.9 10 6 2 8 24% 2822 78598 14235 66%
c t  9.11 24 119 0 15 4609 19 41286 10122 1.9 10 6 2 8 24% 2795 78598 14235 66%
c f  9.13 24 119 0 15 4609 19 41286 10122 1.9 10 6 2 8 24% 2796 78581 14240 66%
c -  9.16 24 119 0 16 4612 19 41478 8608 1.9 10 6 2 8 24% 2799 78581 14240 66%
c -  9.78 24 119 0 17 5010 19 45478 10494 1.8 10 6 2 8 24% 2813 78581 14240 66%
c - 10.40 24 119 0 18 5418 19 49601 12326 1.8 10 6 2 8 24% 2846 78577 14240 66%
c s 10.74 24 119 0 18 5639 18 52170 14765 1.8 10 6 2 8 25% 2853 77874 14240 66%
c e 10.84 24 119 0 18 5639 18 52170 14765 1.8 10 6 2 8 25% 2467 79378 13543 62%
c s 10.85 24 119 0 18 5639 18 52170 14765 1.8 10 6 2 8 25% 2487 79043 13543 62%
c e 10.87 24 119 0 18 5639 18 52170 14765 1.8 10 6 2 8 25% 2471 79075 13533 62%
c ^ 10.87 24 119 0 18 5639 18 52170 14765 1.8 10 6 2 8 25% 2471 79075 13533 62%
c - 11.23 24 119 0 19 5784 18 53846 12414 1.8 10 6 2 8 25% 2473 79075 13533 62%
c - 11.84 24 119 0 20 6121 18 58204 14017 1.8 10 6 2 8 25% 2487 79075 13533 62%
c u 12.03 24 119 0 20 6179 18 58937 12419 1.8 10 6 2 8 25% 2505 79074 13533 62%
c v 12.12 24 119 0 20 6179 18 58937 10384 1.8 10 6 2 8 25% 2506 79074 13533 62%
c w 12.14 24 119 0 20 6179 18 58937 10374 1.8 10 6 2 8 25% 2506 79074 13533 62%
c = 12.43 24 119 0 20 6179 18 58937 10374 1.8 10 6 2 8 25% 2852 79054 13360 62%
c
c  seconds   switched     rate         size/glue tier1    binary         remaining
c         MB   reductions   conflicts        size  tier2     irredundant
c           level   restarts      redundant    glue   trail         variables
c
c d 12.44 24 119 0 20 6179 18 58937 10328 1.8 10 6 2 8 25% 2494 79054 13360 62%
c t 12.45 24 119 0 20 6179 18 58937 10328 1.8 10 6 2 8 25% 2468 79054 13360 62%
c f 12.50 24 119 0 20 6179 18 58937 10328 1.8 10 6 2 8 25% 2480 78990 13369 62%
c c 12.55 24 119 0 20 6179 18 58937 10324 1.8 10 6 2 8 25% 2491 78968 13365 62%
c d 12.56 24 119 0 20 6179 18 58937 10324 1.8 10 6 2 8 25% 2483 78968 13365 62%
c u 12.62 24 119 0 20 6179 18 58937 10009 1.8 10 6 2 8 25% 2484 78968 13365 62%
c v 12.69 24 119 0 20 6179 18 58937 9571 1.8 10 6 2 8 25% 2484 78968 13365 62%
c w 12.71 24 119 0 20 6179 18 58937 9551 1.8 10 6 2 8 25% 2484 78968 13365 62%
c = 13.00 24 119 0 20 6179 18 58937 9551 1.8 10 6 2 8 25% 2596 78947 13309 61%
c d 13.01 24 119 0 20 6179 18 58937 9546 1.8 10 6 2 8 25% 2481 78947 13309 61%
c t 13.02 24 119 0 20 6179 18 58937 9546 1.8 10 6 2 8 25% 2441 78947 13309 61%
c f 13.04 24 119 0 20 6179 18 58937 9546 1.8 10 6 2 8 25% 2448 78923 13312 61%
c - 13.72 24 119 0 21 6488 18 62678 11197 1.8 10 6 2 8 26% 2462 78922 13312 61%
c - 14.42 24 118 0 22 6888 18 67260 13360 1.8 10 6 2 8 26% 2490 78921 13312 61%
c o 14.85 24 117 0 22 7119 18 70253 16174 1.8 10 6 2 8 26% 2505 78920 13312 61%
c - 15.17 24 116 0 23 7292 18 71951 15054 1.8 10 6 2 8 26% 2514 78920 13312 61%
c - 15.97 24 116 0 24 7760 17 76746 16556 1.8 10 6 2 8 26% 2528 78917 13312 61%
c d 16.51 24 116 0 24 8078 17 80019 19632 1.8 11 6 2 8 26% 2535 78916 13309 61%
c u 16.60 26 116 0 24 8078 17 80019 16868 1.8 11 6 2 8 26% 2550 78916 13309 61%
c v 16.67 26 116 0 24 8078 17 80019 15999 1.8 11 6 2 8 26% 2550 78916 13309 61%
c
c  seconds   switched     rate         size/glue tier1    binary         remaining
c         MB   reductions   conflicts        size  tier2     irredundant
c           level   restarts      redundant    glue   trail         variables
c
c w 16.71 26 116 0 24 8078 17 80019 15986 1.8 11 6 2 8 26% 2550 78916 13309 61%
c x 16.78 26 116 0 24 8078 17 80019 15985 1.8 11 6 2 8 26% 2574 78568 13309 61%
c = 17.12 26 116 0 24 8078 17 80019 15985 1.8 11 6 2 8 26% 2696 78556 13248 61%
c d 17.12 26 116 0 24 8078 17 80019 15964 1.8 11 6 2 8 26% 2574 78556 13248 61%
c t 17.14 26 116 0 24 8078 17 80019 15964 1.8 11 6 2 8 26% 2523 78556 13248 61%
c f 17.15 26 116 0 24 8078 17 80019 15964 1.8 11 6 2 8 26% 2527 78515 13254 61%
c u 17.23 26 116 0 24 8078 17 80019 15641 1.8 11 6 2 8 26% 2529 78515 13254 61%
c v 17.33 26 116 0 24 8078 17 80019 13583 1.8 11 6 2 8 26% 2530 78515 13254 61%
c w 17.38 26 116 0 24 8078 17 80019 13525 1.8 11 6 2 8 26% 2530 78515 13254 61%
c = 17.74 26 116 0 24 8078 17 80019 13525 1.8 11 6 2 8 26% 3308 78457 12865 59%
c d 17.75 26 116 0 24 8078 17 80019 13430 1.8 11 6 2 8 26% 2510 78457 12865 59%
c t 17.76 26 116 0 24 8078 17 80019 13430 1.8 11 6 2 8 26% 2323 78457 12865 59%
c f 17.79 26 116 0 24 8078 17 80019 13430 1.8 11 6 2 8 26% 2364 78251 12891 59%
c - 18.02 26 116 0 25 8211 17 81644 12728 1.8 11 6 2 8 26% 2373 78251 12891 59%
c - 18.91 26 116 0 26 8718 17 86645 14980 1.8 11 6 2 8 27% 2384 78251 12891 59%
c - 19.59 26 115 0 27 9101 17 91745 16947 1.8 11 6 2 7 27% 2414 78250 12891 59%
c s 20.29 26 115 0 27 9561 17 95881 20864 1.8 11 6 2 7 27% 2429 75387 12891 59%
c e 20.39 26 115 0 27 9561 17 95881 20864 1.8 11 6 2 7 27% 1888 77488 12283 57%
c 2 20.39 26 115 0 27 9561 17 95881 20864 1.8 11 6 2 7 27% 1877 77488 12283 57%
c s 20.41 26 115 0 27 9561 17 95881 20864 1.8 11 6 2 7 27% 1889 76640 12283 57%
c
c  seconds   switched     rate         size/glue tier1    binary         remaining
c         MB   reductions   conflicts        size  tier2     irredundant
c           level   restarts      redundant    glue   trail         variables
c
c e 20.43 26 115 0 27 9561 17 95881 20864 1.8 11 6 2 7 27% 1868 76707 12270 57%
c ^ 20.43 26 115 0 27 9561 17 95881 20864 1.8 11 6 2 7 27% 1868 76707 12270 57%
c - 20.68 26 115 0 28 9694 17 96941 16331 1.8 11 6 2 7 27% 1870 76707 12270 57%
c - 21.67 26 116 0 29 10097 17 102234 18315 1.8 11 6 2 7 28% 1885 76706 12270 57%
c d 22.11 26 115 0 29 10292 17 104658 20417 1.8 11 6 2 7 28% 1884 76704 12265 57%
c u 22.21 26 115 0 29 10292 17 104658 17225 1.8 11 6 2 7 28% 1898 76704 12265 57%
c v 22.31 26 115 0 29 10292 17 104658 15891 1.8 11 6 2 7 28% 1898 76704 12265 57%
c w 22.34 26 115 0 29 10292 17 104658 15863 1.8 11 6 2 7 28% 1898 76704 12265 57%
c x 22.42 26 115 0 29 10292 17 104658 15857 1.8 11 6 2 7 28% 1956 76440 12265 57%
c = 22.57 26 115 0 29 10292 17 104658 15857 1.8 11 6 2 7 28% 2352 76432 12067 56%
c d 22.58 26 115 0 29 10292 17 104658 15774 1.8 11 6 2 7 28% 1952 76432 12067 56%
c t 22.59 26 115 0 29 10292 17 104658 15774 1.8 11 6 2 7 28% 1827 76432 12067 56%
c f 22.64 26 115 0 29 10292 17 104658 15774 1.8 11 6 2 7 28% 1830 76366 12073 56%
c u 22.74 26 115 0 29 10292 17 104658 15329 1.8 11 6 2 7 28% 1845 76366 12073 56%
c v 22.84 26 115 0 29 10292 17 104658 13545 1.8 11 6 2 7 28% 1845 76366 12073 56%
c w 22.88 26 115 0 29 10292 17 104658 13467 1.8 11 6 2 7 28% 1845 76366 12073 56%
c x 22.96 26 115 0 29 10292 17 104658 13466 1.8 11 6 2 7 28% 1860 76321 12073 56%
c = 23.37 26 115 0 29 10292 17 104658 13466 1.8 11 6 2 7 28% 1978 76166 11999 55%
c d 23.38 26 115 0 29 10292 17 104658 13437 1.8 11 6 2 7 28% 1861 76165 11999 55%
c t 23.39 26 115 0 29 10292 17 104658 13437 1.8 11 6 2 7 28% 1769 76165 11999 55%
c
c  seconds   switched      rate          size/glue tier1    binary         remaining
c         MB   reductions    conflicts         size  tier2     irredundant
c           level   restarts        redundant    glue   trail         variables
c
c f 23.40 26 115 0 29 10292 17 104658 13437 1.8 11 6 2 7 28% 1775 76141 12001 55%
c - 23.91 26 117 0 30 10493 17 107619 14014 1.8 11 6 2 7 29% 1773 76141 12001 55%
c o 24.29 26 117 0 30 10698 17 110277 16576 1.8 11 6 2 7 29% 1779 76141 12001 55%
c - 24.58 26 117 0 31 10903 17 113096 16632 1.8 11 6 2 7 29% 1787 76140 12001 55%
c - 25.17 26 116 0 32 11407 17 118663 18787 1.8 11 6 2 7 29% 1799 76140 12001 55%
c - 25.86 26 116 0 33 11937 17 124320 20546 1.8 11 6 2 7 30% 1809 76138 12001 55%
c - 26.42 26 115 0 34 12427 17 130065 22194 1.8 11 6 2 7 30% 1818 76134 12001 55%
c u 26.72 26 115 0 34 12696 17 132947 21184 1.8 11 6 2 7 29% 1830 76133 12001 55%
c v 26.82 26 115 0 34 12696 17 132947 17934 1.8 11 6 2 7 29% 1830 76133 12001 55%
c w 26.85 26 115 0 34 12696 17 132947 17865 1.8 11 6 2 7 29% 1830 76133 12001 55%
c = 27.16 26 115 0 34 12696 17 132947 17865 1.8 11 6 2 7 29% 1874 76131 11979 55%
c d 27.17 26 115 0 34 12696 17 132947 17854 1.8 11 6 2 7 29% 1828 76131 11979 55%
c t 27.18 26 115 0 34 12696 17 132947 17854 1.8 11 6 2 7 29% 1806 76131 11979 55%
c u 27.24 26 115 0 34 12696 17 132947 17292 1.8 11 6 2 7 29% 1808 76131 11979 55%
c v 27.31 26 115 0 34 12696 17 132947 16568 1.8 11 6 2 7 29% 1808 76131 11979 55%
c w 27.33 26 115 0 34 12696 17 132947 16490 1.8 11 6 2 7 29% 1808 76131 11979 55%
c x 27.37 26 115 0 34 12696 17 132947 16479 1.8 11 6 2 7 29% 1846 75886 11979 55%
c t 27.69 26 115 0 34 12696 17 132947 16479 1.8 11 6 2 7 29% 1813 75886 11979 55%
c - 28.08 26 115 0 35 12955 17 135896 16628 1.8 11 6 2 7 30% 1814 75885 11979 55%
c - 28.67 26 116 0 36 13353 16 141813 19257 1.8 11 6 2 7 30% 1824 75884 11979 55%
c
c  seconds   switched      rate          size/glue tier1    binary         remaining
c         MB   reductions    conflicts         size  tier2     irredundant
c           level   restarts        redundant    glue   trail         variables
c
c - 29.32 26 116 0 37 13908 16 147813 21471 1.8 11 6 2 7 30% 1829 75884 11979 55%
c - 29.93 26 117 0 38 14408 16 153895 23262 1.8 11 6 2 7 31% 1846 75884 11979 55%
c s 30.25 26 117 0 38 14678 16 158028 27198 1.8 11 6 2 7 30% 1861 74540 11979 55%
c e 30.40 28 117 0 38 14678 16 158028 27198 1.8 11 6 2 7 30% 1303 92995 9201 42%
c s 30.45 28 117 0 38 14678 16 158028 27198 1.8 11 6 2 7 30% 1310 90995 9201 42%
c e 30.48 28 117 0 38 14678 16 158028 27198 1.8 11 6 2 7 30% 1256 91155 9170 42%
c ^ 30.48 28 117 0 38 14678 16 158028 27198 1.8 11 6 2 7 30% 1256 91155 9170 42%
c - 30.66 28 116 0 39 14840 16 160059 10886 1.8 11 6 2 7 30% 1256 91155 9170 42%
c o 30.67 28 117 0 39 14853 16 160277 11092 1.8 11 6 2 7 30% 1257 91155 9170 42%
c u 31.11 28 117 0 39 15317 16 164968 13851 1.8 11 6 2 7 30% 1264 91155 9170 42%
c v 31.16 28 117 0 39 15317 16 164968 11556 1.8 11 6 2 7 30% 1264 91155 9170 42%
c w 31.21 28 117 0 39 15317 16 164968 11408 1.8 11 6 2 7 30% 1264 91155 9170 42%
c x 31.29 28 117 0 39 15317 16 164968 11367 1.8 11 6 2 7 30% 1350 89764 9170 42%
c d 31.30 28 117 0 39 15317 16 164968 11366 1.8 11 6 2 7 30% 1348 89763 9169 42%
c t 31.30 28 117 0 39 15317 16 164968 11366 1.8 11 6 2 7 30% 1283 89763 9169 42%
c f 31.39 28 117 0 39 15317 16 164968 11366 1.8 11 6 2 7 30% 1301 89483 9178 42%
c u 31.43 28 117 0 39 15317 16 164968 11179 1.8 11 6 2 7 30% 1304 89483 9178 42%
c v 31.46 28 117 0 39 15317 16 164968 10784 1.8 11 6 2 7 30% 1304 89483 9178 42%
c w 31.50 28 117 0 39 15317 16 164968 10613 1.8 11 6 2 7 30% 1304 89483 9178 42%
c x 31.59 28 117 0 39 15317 16 164968 10595 1.8 11 6 2 7 30% 1332 89113 9178 42%
c
c  seconds   switched      rate          size/glue tier1    binary        remaining
c         MB   reductions    conflicts         size  tier2     irredundant
c           level   restarts        redundant    glue   trail        variables
c
c = 31.96 28 117 0 39 15317 16 164968 10595 1.8 11 6 2 7 30% 1576 88621 9011 42%
c d 31.97 28 117 0 39 15317 16 164968 10430 1.8 11 6 2 7 30% 1332 88620 9011 42%
c t 31.98 28 117 0 39 15317 16 164968 10430 1.8 11 6 2 7 30% 1246 88620 9011 42%
c f 32.07 28 117 0 39 15317 16 164968 10430 1.8 11 6 2 7 30% 1262 88433 9018 42%
c i 32.11 28 117 0 39 15343 16 165265 10694 1.8 11 6 2 7 30% 1265 88433 9017 42%
c i 32.11 28 117 0 39 15343 16 165274 10694 1.8 11 6 2 7 30% 1268 88429 9013 42%
c i 32.11 28 117 0 39 15343 16 165277 10694 1.8 11 6 2 7 30% 1269 88427 9011 42%
c } 32.11 28 117 0 39 15343 16 165279 10694 1.8 11 6 2 7 30% 1269 88427 9009 42%
c 0 32.11 28 117 0 39 15343 16 165279 10694 1.8 11 6 2 7 30% 1269 88427 9009 42%
c
c ---- [ result ] ------------------------------------------------------------
c
s UNSATISFIABLE
c
c ---- [ profiling ] ---------------------------------------------------------
c
c          22.30   69.42 %  search
c          22.30   69.42 %  focused
c           9.55   29.73 %  simplify
c           8.86   27.58 %  probe
c           3.97   12.35 %  sweep
c           3.11    9.68 %  vivify
c           0.81    2.51 %  eliminate
c           0.72    2.24 %  factor
c           0.50    1.56 %  substitute
c           0.40    1.25 %  congruence
c           0.24    0.74 %  preprocess
c           0.22    0.67 %  reduce
c           0.13    0.42 %  subsume
c           0.12    0.38 %  fastel
c           0.09    0.29 %  transitive
c           0.07    0.21 %  backbone
c           0.02    0.06 %  lucky
c           0.01    0.04 %  parse
c =============================================
c          32.11  100.00 %  total
c
c ---- [ statistics ] --------------------------------------------------------
c
c chronological:                         2845                2 %  conflicts
c conflicts:                           165279             5146.53 per second
c congruent:                              276                1 %  variables
c decisions:                          2714554               16.42 per conflict
c eliminated:                           11332               52 %  variables
c factored:                               327                2 %  variables
c fast_eliminated:                       5049               45 %  eliminated
c fast_strengthened:                      137                3 %  per strengthened
c fast_subsumed:                           45                0 %  per subsumed
c iterations:                               9                0 %  variables
c propagations:                     114133944          3553955    per second
c reductions:                              39             4238    interval
c reordered:                                6            27546    interval
c restarts:                             15343               11    interval
c strengthened:                          4919                0 %  checks
c substituted:                           1581                7 %  variables
c subsumed:                              9010                0 %  checks
c switched:                                 0                0    interval
c vivified:                             64448               16 %  checks
c
c ---- [ glue usage ] --------------------------------------------------------
c
c focused glue 2   used 78238 clauses 32.14% accumulated 61.17% tier1
c focused glue 3   used 32658 clauses 13.42% accumulated 74.58%
c focused glue 4-5 used 24962 clauses 10.25% accumulated 84.84%
c focused glue 6   used  8350 clauses  3.43% accumulated 88.27%
c focused glue 7   used  6715 clauses  2.76% accumulated 91.03% tier2
c
c ---- [ resources ] ---------------------------------------------------------
c
c maximum-resident-set-size:         29519872 bytes         28 MB
c process-time:                            32s              32.11 seconds
c
c ---- [ shutting down ] -----------------------------------------------------
c
c exit 20
